p wcnf 121 145 146 
1 95 -4 0 
1 -87 -77 0 
1 -12 108 0 
1 -78 -18 0 
1 77 -8 0 
1 28 -93 0 
1 60 -76 0 
1 -37 77 0 
1 108 42 0 
1 5 48 0 
1 -26 -96 0 
1 50 70 0 
1 29 -95 0 
1 -10 109 0 
1 -98 77 0 
1 -63 -60 0 
1 -84 54 0 
1 -69 -15 0 
1 -45 -67 0 
1 -47 8 0 
1 -63 -51 0 
1 55 -36 0 
1 46 47 0 
1 43 120 0 
1 -64 3 0 
1 -48 24 0 
1 68 -114 0 
1 44 -13 0 
1 4 -90 0 
1 -89 -34 0 
1 32 98 0 
1 101 -22 0 
1 -25 87 0 
1 78 110 0 
1 96 -115 0 
1 11 -54 0 
1 -47 35 0 
1 -112 -81 0 
1 20 105 0 
1 -45 -48 0 
1 116 -115 0 
1 10 11 0 
1 103 -16 0 
1 -108 67 0 
1 79 24 0 
1 11 -101 0 
1 -70 -30 0 
1 -61 80 0 
1 -60 22 0 
1 31 4 0 
1 63 -90 0 
1 65 25 0 
1 13 54 0 
1 13 -35 0 
1 -75 -11 0 
1 -26 106 0 
1 2 -87 0 
1 -37 -106 0 
1 24 -62 0 
1 -111 -120 0 
1 100 -4 0 
1 47 57 0 
1 -24 -99 0 
1 92 -62 0 
1 -55 6 0 
1 -95 -29 0 
1 -7 5 0 
1 -110 -80 0 
1 4 -33 0 
1 -52 1 0 
1 45 -56 0 
1 67 -65 0 
1 -37 -94 0 
1 -52 -100 0 
1 -48 60 0 
1 -3 74 0 
1 26 30 0 
1 -97 -88 0 
1 -7 115 0 
1 -46 47 0 
1 -100 -92 0 
1 89 -109 0 
1 -35 13 0 
1 19 78 0 
1 86 -50 0 
1 61 107 0 
1 -13 82 0 
1 -88 -8 0 
1 76 98 0 
1 11 83 0 
1 10 19 0 
1 43 58 0 
1 -37 77 0 
1 -120 74 0 
1 -2 24 0 
1 -83 -55 0 
1 -14 -79 0 
1 98 86 0 
1 36 26 0 
1 5 -76 0 
1 -101 -73 0 
1 -53 5 0 
1 16 31 0 
1 -2 -44 0 
1 43 -1 0 
1 -50 99 0 
1 -2 16 0 
1 -31 -116 0 
1 -32 56 0 
1 -48 -44 0 
1 -70 53 0 
1 37 95 0 
1 16 -19 0 
1 -74 -85 0 
1 -46 -88 0 
1 -94 -64 0 
1 -2 -71 0 
1 -43 21 0 
1 -62 -33 0 
1 -57 -82 0 
1 -28 65 0 
1 55 -72 0 
1 95 72 0 
1 -81 6 0 
1 -24 86 0 
1 -24 87 0 
1 -96 102 0 
1 6 -110 0 
1 -52 115 0 
1 -101 51 0 
1 -90 -24 0 
1 -97 20 0 
1 116 52 0 
1 -103 -118 0 
1 113 27 0 
1 87 66 0 
1 -64 23 0 
1 -55 85 0 
1 -105 87 0 
1 45 24 0 
1 -78 -10 0 
1 117 28 0 
1 -74 -68 0 
1 -1 -76 0 
1 -79 -7 0 
